50
1000
297
296
288
279
271
249
241
239
234
232
231
227
226
220
214
212
212
209
205
200
199
194
193
191
187
186
184
183
175
172
167
154
151
150
146
143
141
138
137
129
127
122
121
115
113
110
110
107
104
103
